(set-logic QF_NRA)
(set-info :source |Benchmarks generated from hycomp (https://es-static.fbk.eu/tools/hycomp/). BMC instances of non-linear hybrid automata taken from: Alessandro Cimatti, Sergio Mover, Stefano Tonetta, A quantifier-free SMT encoding of non-linear hybrid automata, FMCAD 2012 and Alessandro Cimatti, Sergio Mover, Stefano Tonetta, Quantier-free encoding of invariants for Hybrid Systems, Formal Methods in System Design. This instance solves a BMC problem of depth 3 and uses the quantifier free encoding encoding. Contacts: Sergio Mover (mover@fbk.eu), Stefano Tonetta (tonettas@fbk.eu), Alessandro Cimatti (cimatti@fbk.eu).|)
(set-info :smt-lib-version 2.0)
(set-info :category "industrial")
(set-info :status unsat)
;; MathSAT API call trace
;; generated on Mon Mar 19 10:47:38 2012
(declare-fun b.counter.0__AT2 () Bool)
(declare-fun b.time__AT1 () Real)
(declare-fun b.x__AT2 () Real)
(declare-fun b.x__AT1 () Real)
(declare-fun b.y__AT3 () Real)
(declare-fun b.EVENT.0__AT2 () Bool)
(declare-fun b.counter.1__AT2 () Bool)
(declare-fun b.event_is_timed__AT1 () Bool)
(declare-fun b.counter.0__AT1 () Bool)
(declare-fun b.EVENT.1__AT2 () Bool)
(declare-fun b.EVENT.1__AT0 () Bool)
(declare-fun b.counter.0__AT3 () Bool)
(declare-fun b.counter.2__AT2 () Bool)
(declare-fun b.speed_loss__AT0 () Real)
(declare-fun b.counter.1__AT1 () Bool)
(declare-fun b.speed_x__AT0 () Real)
(declare-fun b.counter.1__AT3 () Bool)
(declare-fun b.counter.3__AT2 () Bool)
(declare-fun b.x__AT3 () Real)
(declare-fun b.EVENT.0__AT3 () Bool)
(declare-fun b.counter.2__AT1 () Bool)
(declare-fun b.counter.2__AT3 () Bool)
(declare-fun b.time__AT0 () Real)
(declare-fun b.bool_atom__AT2 () Bool)
(declare-fun b.EVENT.1__AT3 () Bool)
(declare-fun b.counter.2__AT0 () Bool)
(declare-fun b.counter.3__AT1 () Bool)
(declare-fun b.time__AT3 () Real)
(declare-fun b.speed_x__AT2 () Real)
(declare-fun b.counter.3__AT3 () Bool)
(declare-fun b.bool_atom__AT1 () Bool)
(declare-fun b.delta__AT3 () Real)
(declare-fun b.bool_atom__AT3 () Bool)
(declare-fun b.speed_y__AT2 () Real)
(declare-fun b.x__AT0 () Real)
(declare-fun b.speed_x__AT3 () Real)
(declare-fun b.speed_y__AT1 () Real)
(declare-fun b.speed_y__AT3 () Real)
(declare-fun b.delta__AT1 () Real)
(declare-fun b.bool_atom__AT0 () Bool)
(declare-fun b.y__AT0 () Real)
(declare-fun b.EVENT.1__AT1 () Bool)
(declare-fun b.EVENT.0__AT1 () Bool)
(declare-fun b.counter.0__AT0 () Bool)
(declare-fun b.delta__AT0 () Real)
(declare-fun b.counter.1__AT0 () Bool)
(declare-fun b.y__AT1 () Real)
(declare-fun b.EVENT.0__AT0 () Bool)
(declare-fun b.speed_y__AT0 () Real)
(declare-fun b.event_is_timed__AT2 () Bool)
(declare-fun b.event_is_timed__AT0 () Bool)
(declare-fun b.event_is_timed__AT3 () Bool)
(declare-fun b.counter.3__AT0 () Bool)
(declare-fun b.time__AT2 () Real)
(declare-fun b.speed_x__AT1 () Real)
(declare-fun b.y__AT2 () Real)
(declare-fun b.delta__AT2 () Real)
(assert (let ((.def_908 (* (- 1.0) b.speed_x__AT3)))
(let ((.def_909 (* b.speed_x__AT3 .def_908)))
(let ((.def_910 (* (- 1.0) .def_909)))
(let ((.def_941 (* 2.0 .def_910)))
(let ((.def_959 (* (- 1.0) .def_941)))
(let ((.def_960 (* b.delta__AT3 .def_959)))
(let ((.def_961 (* (- 5.0) .def_960)))
(let ((.def_840 (* (- 1.0) b.x__AT3)))
(let ((.def_921 (* b.speed_x__AT3 .def_840)))
(let ((.def_946 (* (- 5.0) .def_921)))
(let ((.def_966 (+ .def_946 .def_961)))
(let ((.def_916 (* b.x__AT3 .def_908)))
(let ((.def_944 (* (- 5.0) .def_916)))
(let ((.def_967 (+ .def_944 .def_966)))
(let ((.def_948 (* (- 49.0) b.delta__AT3)))
(let ((.def_968 (+ .def_948 .def_967)))
(let ((.def_950 (* 5.0 b.speed_y__AT3)))
(let ((.def_969 (+ .def_950 .def_968)))
(let ((.def_970 (<= .def_969 0.0 )))
(let ((.def_922 (* (- 1.0) .def_921)))
(let ((.def_917 (* (- 1.0) .def_916)))
(let ((.def_938 (+ .def_917 .def_922)))
(let ((.def_939 (+ b.speed_y__AT3 .def_938)))
(let ((.def_958 (<= .def_939 0.0 )))
(let ((.def_971 (and .def_958 .def_970)))
(let ((.def_942 (* b.delta__AT3 .def_941)))
(let ((.def_943 (* 5.0 .def_942)))
(let ((.def_952 (+ .def_946 .def_943)))
(let ((.def_953 (+ .def_944 .def_952)))
(let ((.def_954 (+ .def_948 .def_953)))
(let ((.def_955 (+ .def_950 .def_954)))
(let ((.def_956 (<= 0.0 .def_955)))
(let ((.def_940 (<= 0.0 .def_939)))
(let ((.def_957 (and .def_940 .def_956)))
(let ((.def_972 (or .def_957 .def_971)))
(let ((.def_923 (* b.delta__AT3 .def_922)))
(let ((.def_924 (* 10.0 .def_923)))
(let ((.def_918 (* b.delta__AT3 .def_917)))
(let ((.def_919 (* 10.0 .def_918)))
(let ((.def_930 (+ .def_919 .def_924)))
(let ((.def_907 (* b.delta__AT3 b.delta__AT3)))
(let ((.def_911 (* .def_907 .def_910)))
(let ((.def_912 (* 10.0 .def_911)))
(let ((.def_931 (+ .def_912 .def_930)))
(let ((.def_914 (* (- 49.0) .def_907)))
(let ((.def_932 (+ .def_914 .def_931)))
(let ((.def_905 (* b.speed_y__AT3 b.delta__AT3)))
(let ((.def_906 (* 10.0 .def_905)))
(let ((.def_933 (+ .def_906 .def_932)))
(let ((.def_886 (* b.x__AT3 .def_840)))
(let ((.def_926 (* (- 10.0) .def_886)))
(let ((.def_934 (+ .def_926 .def_933)))
(let ((.def_928 (* 10.0 b.y__AT3)))
(let ((.def_935 (+ .def_928 .def_934)))
(let ((.def_936 (<= 0.0 .def_935)))
(let ((.def_887 (<= .def_886 b.y__AT3)))
(let ((.def_937 (and .def_887 .def_936)))
(let ((.def_973 (and .def_937 .def_972)))
(let ((.def_76 (<= b.speed_loss__AT0 (/ 1 2))))
(let ((.def_73 (<= (/ 1 10) b.speed_loss__AT0)))
(let ((.def_77 (and .def_73 .def_76)))
(let ((.def_974 (and .def_77 .def_973)))
(let ((.def_532 (not b.counter.0__AT2)))
(let ((.def_897 (or b.counter.1__AT2 .def_532)))
(let ((.def_898 (or b.counter.2__AT2 .def_897)))
(let ((.def_522 (not b.counter.1__AT2)))
(let ((.def_892 (and .def_522 .def_532)))
(let ((.def_527 (not b.counter.2__AT2)))
(let ((.def_896 (or .def_527 .def_892)))
(let ((.def_899 (and .def_896 .def_898)))
(let ((.def_900 (or b.counter.3__AT2 .def_899)))
(let ((.def_893 (or b.counter.2__AT2 .def_892)))
(let ((.def_891 (or .def_522 .def_527)))
(let ((.def_894 (and .def_891 .def_893)))
(let ((.def_541 (not b.counter.3__AT2)))
(let ((.def_895 (or .def_541 .def_894)))
(let ((.def_901 (and .def_895 .def_900)))
(let ((.def_888 (and .def_77 .def_887)))
(let ((.def_883 (not b.EVENT.0__AT3)))
(let ((.def_881 (not b.EVENT.1__AT3)))
(let ((.def_884 (or .def_881 .def_883)))
(let ((.def_9 (not b.counter.0__AT3)))
(let ((.def_6 (not b.counter.1__AT3)))
(let ((.def_874 (or .def_6 .def_9)))
(let ((.def_878 (or b.counter.3__AT3 .def_874)))
(let ((.def_875 (or b.counter.2__AT3 .def_874)))
(let ((.def_4 (not b.counter.2__AT3)))
(let ((.def_873 (or .def_4 .def_9)))
(let ((.def_876 (and .def_873 .def_875)))
(let ((.def_14 (not b.counter.3__AT3)))
(let ((.def_877 (or .def_14 .def_876)))
(let ((.def_879 (and .def_877 .def_878)))
(let ((.def_885 (and .def_879 .def_884)))
(let ((.def_889 (and .def_885 .def_888)))
(let ((.def_868 (<= 0.0 b.delta__AT2)))
(let ((.def_619 (not b.EVENT.0__AT2)))
(let ((.def_617 (not b.EVENT.1__AT2)))
(let ((.def_712 (and .def_617 .def_619)))
(let ((.def_714 (not .def_712)))
(let ((.def_869 (or .def_714 .def_868)))
(let ((.def_870 (or b.EVENT.1__AT2 .def_869)))
(let ((.def_752 (= b.bool_atom__AT2 b.bool_atom__AT3)))
(let ((.def_748 (= b.counter.0__AT3 b.counter.0__AT2)))
(let ((.def_746 (= b.counter.1__AT3 b.counter.1__AT2)))
(let ((.def_744 (= b.counter.2__AT3 b.counter.2__AT2)))
(let ((.def_743 (= b.counter.3__AT3 b.counter.3__AT2)))
(let ((.def_745 (and .def_743 .def_744)))
(let ((.def_747 (and .def_745 .def_746)))
(let ((.def_749 (and .def_747 .def_748)))
(let ((.def_864 (and .def_749 .def_752)))
(let ((.def_865 (or .def_714 .def_864)))
(let ((.def_866 (or b.EVENT.1__AT2 .def_865)))
(let ((.def_852 (* (- 10.0) b.y__AT3)))
(let ((.def_643 (* b.delta__AT2 b.delta__AT2)))
(let ((.def_650 (* (- 49.0) .def_643)))
(let ((.def_856 (+ .def_650 .def_852)))
(let ((.def_641 (* b.speed_y__AT2 b.delta__AT2)))
(let ((.def_642 (* 10.0 .def_641)))
(let ((.def_857 (+ .def_642 .def_856)))
(let ((.def_664 (* 10.0 b.y__AT2)))
(let ((.def_858 (+ .def_664 .def_857)))
(let ((.def_859 (= .def_858 0.0 )))
(let ((.def_847 (* (- 5.0) b.speed_y__AT3)))
(let ((.def_684 (* (- 49.0) b.delta__AT2)))
(let ((.def_848 (+ .def_684 .def_847)))
(let ((.def_686 (* 5.0 b.speed_y__AT2)))
(let ((.def_849 (+ .def_686 .def_848)))
(let ((.def_850 (= .def_849 0.0 )))
(let ((.def_839 (* b.speed_x__AT2 b.delta__AT2)))
(let ((.def_843 (+ .def_840 .def_839)))
(let ((.def_844 (+ b.x__AT2 .def_843)))
(let ((.def_845 (= .def_844 0.0 )))
(let ((.def_738 (= b.speed_x__AT2 b.speed_x__AT3)))
(let ((.def_846 (and .def_738 .def_845)))
(let ((.def_851 (and .def_846 .def_850)))
(let ((.def_860 (and .def_851 .def_859)))
(let ((.def_861 (or .def_714 .def_860)))
(let ((.def_735 (= b.y__AT2 b.y__AT3)))
(let ((.def_732 (= b.x__AT2 b.x__AT3)))
(let ((.def_833 (and .def_732 .def_735)))
(let ((.def_834 (and .def_738 .def_833)))
(let ((.def_741 (= b.speed_y__AT2 b.speed_y__AT3)))
(let ((.def_835 (and .def_741 .def_834)))
(let ((.def_830 (= b.delta__AT2 0.0 )))
(let ((.def_831 (and .def_712 .def_830)))
(let ((.def_832 (not .def_831)))
(let ((.def_836 (or .def_832 .def_835)))
(let ((.def_837 (or b.EVENT.1__AT2 .def_836)))
(let ((.def_822 (and .def_738 .def_741)))
(let ((.def_823 (and .def_749 .def_822)))
(let ((.def_824 (or b.bool_atom__AT2 .def_823)))
(let ((.def_798 (or .def_9 b.counter.0__AT2)))
(let ((.def_797 (or b.counter.0__AT3 .def_532)))
(let ((.def_799 (and .def_797 .def_798)))
(let ((.def_800 (and .def_6 .def_799)))
(let ((.def_801 (or b.counter.1__AT2 .def_800)))
(let ((.def_796 (or b.counter.1__AT3 .def_522)))
(let ((.def_802 (and .def_796 .def_801)))
(let ((.def_813 (and .def_4 .def_802)))
(let ((.def_814 (or b.counter.2__AT2 .def_813)))
(let ((.def_808 (and .def_6 .def_532)))
(let ((.def_809 (or b.counter.1__AT2 .def_808)))
(let ((.def_810 (and .def_796 .def_809)))
(let ((.def_811 (and b.counter.2__AT3 .def_810)))
(let ((.def_812 (or .def_527 .def_811)))
(let ((.def_815 (and .def_812 .def_814)))
(let ((.def_816 (and b.counter.3__AT3 .def_815)))
(let ((.def_817 (or b.counter.3__AT2 .def_816)))
(let ((.def_803 (and b.counter.2__AT3 .def_802)))
(let ((.def_804 (or b.counter.2__AT2 .def_803)))
(let ((.def_792 (or b.counter.1__AT3 b.counter.1__AT2)))
(let ((.def_790 (and .def_6 b.counter.0__AT3)))
(let ((.def_791 (or .def_522 .def_790)))
(let ((.def_793 (and .def_791 .def_792)))
(let ((.def_794 (and .def_4 .def_793)))
(let ((.def_795 (or .def_527 .def_794)))
(let ((.def_805 (and .def_795 .def_804)))
(let ((.def_806 (and .def_14 .def_805)))
(let ((.def_807 (or .def_541 .def_806)))
(let ((.def_818 (and .def_807 .def_817)))
(let ((.def_511 (* b.speed_y__AT2 b.speed_y__AT2)))
(let ((.def_509 (* b.speed_x__AT2 b.speed_x__AT2)))
(let ((.def_782 (+ .def_509 .def_511)))
(let ((.def_223 (* (- 1.0) b.speed_loss__AT0)))
(let ((.def_224 (+ 1.0 .def_223)))
(let ((.def_240 (* .def_224 .def_224)))
(let ((.def_783 (* .def_240 .def_782)))
(let ((.def_785 (* (- 1.0) .def_783)))
(let ((.def_779 (* b.speed_y__AT3 b.speed_y__AT3)))
(let ((.def_786 (+ .def_779 .def_785)))
(let ((.def_777 (* b.speed_x__AT3 b.speed_x__AT3)))
(let ((.def_787 (+ .def_777 .def_786)))
(let ((.def_788 (= .def_787 0.0 )))
(let ((.def_770 (* .def_224 b.speed_y__AT2)))
(let ((.def_496 (* (- 2.0) b.x__AT2)))
(let ((.def_497 (* (- 1.0) .def_496)))
(let ((.def_767 (* .def_224 .def_497)))
(let ((.def_768 (* b.speed_x__AT2 .def_767)))
(let ((.def_773 (+ .def_768 .def_770)))
(let ((.def_764 (* (- 2.0) b.x__AT3)))
(let ((.def_765 (* (- 1.0) .def_764)))
(let ((.def_766 (* b.speed_x__AT3 .def_765)))
(let ((.def_774 (+ .def_766 .def_773)))
(let ((.def_775 (+ b.speed_y__AT3 .def_774)))
(let ((.def_776 (= .def_775 0.0 )))
(let ((.def_789 (and .def_776 .def_788)))
(let ((.def_819 (and .def_789 .def_818)))
(let ((.def_763 (not b.bool_atom__AT2)))
(let ((.def_820 (or .def_763 .def_819)))
(let ((.def_498 (* b.speed_x__AT2 .def_497)))
(let ((.def_758 (+ b.speed_y__AT2 .def_498)))
(let ((.def_759 (<= 0.0 .def_758)))
(let ((.def_760 (not .def_759)))
(let ((.def_576 (* (- 1.0) b.x__AT2)))
(let ((.def_622 (* b.x__AT2 .def_576)))
(let ((.def_757 (= b.y__AT2 .def_622)))
(let ((.def_761 (and .def_757 .def_760)))
(let ((.def_762 (= b.bool_atom__AT2 .def_761)))
(let ((.def_821 (and .def_762 .def_820)))
(let ((.def_825 (and .def_821 .def_824)))
(let ((.def_826 (and .def_732 .def_825)))
(let ((.def_827 (and .def_735 .def_826)))
(let ((.def_828 (or .def_712 .def_827)))
(let ((.def_829 (or b.EVENT.1__AT2 .def_828)))
(let ((.def_838 (and .def_829 .def_837)))
(let ((.def_862 (and .def_838 .def_861)))
(let ((.def_719 (= b.time__AT2 b.time__AT3)))
(let ((.def_733 (and .def_719 .def_732)))
(let ((.def_736 (and .def_733 .def_735)))
(let ((.def_739 (and .def_736 .def_738)))
(let ((.def_742 (and .def_739 .def_741)))
(let ((.def_750 (and .def_742 .def_749)))
(let ((.def_753 (and .def_750 .def_752)))
(let ((.def_754 (or .def_617 .def_753)))
(let ((.def_722 (* (- 1.0) b.time__AT3)))
(let ((.def_725 (+ b.delta__AT2 .def_722)))
(let ((.def_726 (+ b.time__AT2 .def_725)))
(let ((.def_727 (= .def_726 0.0 )))
(let ((.def_728 (or .def_714 .def_727)))
(let ((.def_729 (or b.EVENT.1__AT2 .def_728)))
(let ((.def_720 (or .def_712 .def_719)))
(let ((.def_721 (or b.EVENT.1__AT2 .def_720)))
(let ((.def_730 (and .def_721 .def_729)))
(let ((.def_755 (and .def_730 .def_754)))
(let ((.def_716 (= .def_714 b.event_is_timed__AT3)))
(let ((.def_713 (= b.event_is_timed__AT2 .def_712)))
(let ((.def_717 (and .def_713 .def_716)))
(let ((.def_756 (and .def_717 .def_755)))
(let ((.def_863 (and .def_756 .def_862)))
(let ((.def_867 (and .def_863 .def_866)))
(let ((.def_871 (and .def_867 .def_870)))
(let ((.def_872 (and .def_617 .def_871)))
(let ((.def_890 (and .def_872 .def_889)))
(let ((.def_902 (and .def_890 .def_901)))
(let ((.def_644 (* (- 1.0) b.speed_x__AT2)))
(let ((.def_645 (* b.speed_x__AT2 .def_644)))
(let ((.def_646 (* (- 1.0) .def_645)))
(let ((.def_677 (* 2.0 .def_646)))
(let ((.def_695 (* (- 1.0) .def_677)))
(let ((.def_696 (* b.delta__AT2 .def_695)))
(let ((.def_697 (* (- 5.0) .def_696)))
(let ((.def_657 (* b.speed_x__AT2 .def_576)))
(let ((.def_682 (* (- 5.0) .def_657)))
(let ((.def_702 (+ .def_682 .def_697)))
(let ((.def_652 (* b.x__AT2 .def_644)))
(let ((.def_680 (* (- 5.0) .def_652)))
(let ((.def_703 (+ .def_680 .def_702)))
(let ((.def_704 (+ .def_684 .def_703)))
(let ((.def_705 (+ .def_686 .def_704)))
(let ((.def_706 (<= .def_705 0.0 )))
(let ((.def_658 (* (- 1.0) .def_657)))
(let ((.def_653 (* (- 1.0) .def_652)))
(let ((.def_674 (+ .def_653 .def_658)))
(let ((.def_675 (+ b.speed_y__AT2 .def_674)))
(let ((.def_694 (<= .def_675 0.0 )))
(let ((.def_707 (and .def_694 .def_706)))
(let ((.def_678 (* b.delta__AT2 .def_677)))
(let ((.def_679 (* 5.0 .def_678)))
(let ((.def_688 (+ .def_682 .def_679)))
(let ((.def_689 (+ .def_680 .def_688)))
(let ((.def_690 (+ .def_684 .def_689)))
(let ((.def_691 (+ .def_686 .def_690)))
(let ((.def_692 (<= 0.0 .def_691)))
(let ((.def_676 (<= 0.0 .def_675)))
(let ((.def_693 (and .def_676 .def_692)))
(let ((.def_708 (or .def_693 .def_707)))
(let ((.def_659 (* b.delta__AT2 .def_658)))
(let ((.def_660 (* 10.0 .def_659)))
(let ((.def_654 (* b.delta__AT2 .def_653)))
(let ((.def_655 (* 10.0 .def_654)))
(let ((.def_666 (+ .def_655 .def_660)))
(let ((.def_647 (* .def_643 .def_646)))
(let ((.def_648 (* 10.0 .def_647)))
(let ((.def_667 (+ .def_648 .def_666)))
(let ((.def_668 (+ .def_650 .def_667)))
(let ((.def_669 (+ .def_642 .def_668)))
(let ((.def_662 (* (- 10.0) .def_622)))
(let ((.def_670 (+ .def_662 .def_669)))
(let ((.def_671 (+ .def_664 .def_670)))
(let ((.def_672 (<= 0.0 .def_671)))
(let ((.def_623 (<= .def_622 b.y__AT2)))
(let ((.def_673 (and .def_623 .def_672)))
(let ((.def_709 (and .def_673 .def_708)))
(let ((.def_710 (and .def_77 .def_709)))
(let ((.def_261 (not b.counter.0__AT1)))
(let ((.def_633 (or b.counter.1__AT1 .def_261)))
(let ((.def_634 (or b.counter.2__AT1 .def_633)))
(let ((.def_251 (not b.counter.1__AT1)))
(let ((.def_628 (and .def_251 .def_261)))
(let ((.def_256 (not b.counter.2__AT1)))
(let ((.def_632 (or .def_256 .def_628)))
(let ((.def_635 (and .def_632 .def_634)))
(let ((.def_636 (or b.counter.3__AT1 .def_635)))
(let ((.def_629 (or b.counter.2__AT1 .def_628)))
(let ((.def_627 (or .def_251 .def_256)))
(let ((.def_630 (and .def_627 .def_629)))
(let ((.def_270 (not b.counter.3__AT1)))
(let ((.def_631 (or .def_270 .def_630)))
(let ((.def_637 (and .def_631 .def_636)))
(let ((.def_624 (and .def_77 .def_623)))
(let ((.def_620 (or .def_617 .def_619)))
(let ((.def_610 (or .def_522 .def_532)))
(let ((.def_614 (or b.counter.3__AT2 .def_610)))
(let ((.def_611 (or b.counter.2__AT2 .def_610)))
(let ((.def_609 (or .def_527 .def_532)))
(let ((.def_612 (and .def_609 .def_611)))
(let ((.def_613 (or .def_541 .def_612)))
(let ((.def_615 (and .def_613 .def_614)))
(let ((.def_621 (and .def_615 .def_620)))
(let ((.def_625 (and .def_621 .def_624)))
(let ((.def_604 (<= 0.0 b.delta__AT1)))
(let ((.def_348 (not b.EVENT.0__AT1)))
(let ((.def_346 (not b.EVENT.1__AT1)))
(let ((.def_440 (and .def_346 .def_348)))
(let ((.def_442 (not .def_440)))
(let ((.def_605 (or .def_442 .def_604)))
(let ((.def_606 (or b.EVENT.1__AT1 .def_605)))
(let ((.def_484 (= b.bool_atom__AT1 b.bool_atom__AT2)))
(let ((.def_480 (= b.counter.0__AT1 b.counter.0__AT2)))
(let ((.def_477 (= b.counter.1__AT1 b.counter.1__AT2)))
(let ((.def_474 (= b.counter.2__AT1 b.counter.2__AT2)))
(let ((.def_472 (= b.counter.3__AT1 b.counter.3__AT2)))
(let ((.def_475 (and .def_472 .def_474)))
(let ((.def_478 (and .def_475 .def_477)))
(let ((.def_481 (and .def_478 .def_480)))
(let ((.def_600 (and .def_481 .def_484)))
(let ((.def_601 (or .def_442 .def_600)))
(let ((.def_602 (or b.EVENT.1__AT1 .def_601)))
(let ((.def_588 (* (- 10.0) b.y__AT2)))
(let ((.def_371 (* b.delta__AT1 b.delta__AT1)))
(let ((.def_378 (* (- 49.0) .def_371)))
(let ((.def_592 (+ .def_378 .def_588)))
(let ((.def_369 (* b.speed_y__AT1 b.delta__AT1)))
(let ((.def_370 (* 10.0 .def_369)))
(let ((.def_593 (+ .def_370 .def_592)))
(let ((.def_392 (* 10.0 b.y__AT1)))
(let ((.def_594 (+ .def_392 .def_593)))
(let ((.def_595 (= .def_594 0.0 )))
(let ((.def_583 (* (- 5.0) b.speed_y__AT2)))
(let ((.def_412 (* (- 49.0) b.delta__AT1)))
(let ((.def_584 (+ .def_412 .def_583)))
(let ((.def_414 (* 5.0 b.speed_y__AT1)))
(let ((.def_585 (+ .def_414 .def_584)))
(let ((.def_586 (= .def_585 0.0 )))
(let ((.def_575 (* b.speed_x__AT1 b.delta__AT1)))
(let ((.def_579 (+ .def_576 .def_575)))
(let ((.def_580 (+ b.x__AT1 .def_579)))
(let ((.def_581 (= .def_580 0.0 )))
(let ((.def_466 (= b.speed_x__AT1 b.speed_x__AT2)))
(let ((.def_582 (and .def_466 .def_581)))
(let ((.def_587 (and .def_582 .def_586)))
(let ((.def_596 (and .def_587 .def_595)))
(let ((.def_597 (or .def_442 .def_596)))
(let ((.def_463 (= b.y__AT1 b.y__AT2)))
(let ((.def_460 (= b.x__AT1 b.x__AT2)))
(let ((.def_569 (and .def_460 .def_463)))
(let ((.def_570 (and .def_466 .def_569)))
(let ((.def_469 (= b.speed_y__AT1 b.speed_y__AT2)))
(let ((.def_571 (and .def_469 .def_570)))
(let ((.def_566 (= b.delta__AT1 0.0 )))
(let ((.def_567 (and .def_440 .def_566)))
(let ((.def_568 (not .def_567)))
(let ((.def_572 (or .def_568 .def_571)))
(let ((.def_573 (or b.EVENT.1__AT1 .def_572)))
(let ((.def_558 (and .def_466 .def_469)))
(let ((.def_559 (and .def_481 .def_558)))
(let ((.def_560 (or b.bool_atom__AT1 .def_559)))
(let ((.def_533 (or b.counter.0__AT1 .def_532)))
(let ((.def_531 (or .def_261 b.counter.0__AT2)))
(let ((.def_534 (and .def_531 .def_533)))
(let ((.def_535 (and .def_522 .def_534)))
(let ((.def_536 (or b.counter.1__AT1 .def_535)))
(let ((.def_530 (or .def_251 b.counter.1__AT2)))
(let ((.def_537 (and .def_530 .def_536)))
(let ((.def_549 (and .def_527 .def_537)))
(let ((.def_550 (or b.counter.2__AT1 .def_549)))
(let ((.def_544 (and .def_261 .def_522)))
(let ((.def_545 (or b.counter.1__AT1 .def_544)))
(let ((.def_546 (and .def_530 .def_545)))
(let ((.def_547 (and b.counter.2__AT2 .def_546)))
(let ((.def_548 (or .def_256 .def_547)))
(let ((.def_551 (and .def_548 .def_550)))
(let ((.def_552 (and b.counter.3__AT2 .def_551)))
(let ((.def_553 (or b.counter.3__AT1 .def_552)))
(let ((.def_538 (and b.counter.2__AT2 .def_537)))
(let ((.def_539 (or b.counter.2__AT1 .def_538)))
(let ((.def_525 (or b.counter.1__AT1 b.counter.1__AT2)))
(let ((.def_523 (and b.counter.0__AT2 .def_522)))
(let ((.def_524 (or .def_251 .def_523)))
(let ((.def_526 (and .def_524 .def_525)))
(let ((.def_528 (and .def_526 .def_527)))
(let ((.def_529 (or .def_256 .def_528)))
(let ((.def_540 (and .def_529 .def_539)))
(let ((.def_542 (and .def_540 .def_541)))
(let ((.def_543 (or .def_270 .def_542)))
(let ((.def_554 (and .def_543 .def_553)))
(let ((.def_237 (* b.speed_y__AT1 b.speed_y__AT1)))
(let ((.def_235 (* b.speed_x__AT1 b.speed_x__AT1)))
(let ((.def_514 (+ .def_235 .def_237)))
(let ((.def_515 (* .def_240 .def_514)))
(let ((.def_517 (* (- 1.0) .def_515)))
(let ((.def_518 (+ .def_511 .def_517)))
(let ((.def_519 (+ .def_509 .def_518)))
(let ((.def_520 (= .def_519 0.0 )))
(let ((.def_502 (* b.speed_y__AT1 .def_224)))
(let ((.def_220 (* (- 2.0) b.x__AT1)))
(let ((.def_221 (* (- 1.0) .def_220)))
(let ((.def_499 (* .def_221 .def_224)))
(let ((.def_500 (* b.speed_x__AT1 .def_499)))
(let ((.def_505 (+ .def_500 .def_502)))
(let ((.def_506 (+ .def_498 .def_505)))
(let ((.def_507 (+ b.speed_y__AT2 .def_506)))
(let ((.def_508 (= .def_507 0.0 )))
(let ((.def_521 (and .def_508 .def_520)))
(let ((.def_555 (and .def_521 .def_554)))
(let ((.def_495 (not b.bool_atom__AT1)))
(let ((.def_556 (or .def_495 .def_555)))
(let ((.def_222 (* b.speed_x__AT1 .def_221)))
(let ((.def_490 (+ b.speed_y__AT1 .def_222)))
(let ((.def_491 (<= 0.0 .def_490)))
(let ((.def_492 (not .def_491)))
(let ((.def_305 (* (- 1.0) b.x__AT1)))
(let ((.def_351 (* b.x__AT1 .def_305)))
(let ((.def_489 (= b.y__AT1 .def_351)))
(let ((.def_493 (and .def_489 .def_492)))
(let ((.def_494 (= b.bool_atom__AT1 .def_493)))
(let ((.def_557 (and .def_494 .def_556)))
(let ((.def_561 (and .def_557 .def_560)))
(let ((.def_562 (and .def_460 .def_561)))
(let ((.def_563 (and .def_463 .def_562)))
(let ((.def_564 (or .def_440 .def_563)))
(let ((.def_565 (or b.EVENT.1__AT1 .def_564)))
(let ((.def_574 (and .def_565 .def_573)))
(let ((.def_598 (and .def_574 .def_597)))
(let ((.def_447 (= b.time__AT1 b.time__AT2)))
(let ((.def_461 (and .def_447 .def_460)))
(let ((.def_464 (and .def_461 .def_463)))
(let ((.def_467 (and .def_464 .def_466)))
(let ((.def_470 (and .def_467 .def_469)))
(let ((.def_482 (and .def_470 .def_481)))
(let ((.def_485 (and .def_482 .def_484)))
(let ((.def_486 (or .def_346 .def_485)))
(let ((.def_450 (* (- 1.0) b.time__AT2)))
(let ((.def_453 (+ b.delta__AT1 .def_450)))
(let ((.def_454 (+ b.time__AT1 .def_453)))
(let ((.def_455 (= .def_454 0.0 )))
(let ((.def_456 (or .def_442 .def_455)))
(let ((.def_457 (or b.EVENT.1__AT1 .def_456)))
(let ((.def_448 (or .def_440 .def_447)))
(let ((.def_449 (or b.EVENT.1__AT1 .def_448)))
(let ((.def_458 (and .def_449 .def_457)))
(let ((.def_487 (and .def_458 .def_486)))
(let ((.def_444 (= .def_442 b.event_is_timed__AT2)))
(let ((.def_441 (= b.event_is_timed__AT1 .def_440)))
(let ((.def_445 (and .def_441 .def_444)))
(let ((.def_488 (and .def_445 .def_487)))
(let ((.def_599 (and .def_488 .def_598)))
(let ((.def_603 (and .def_599 .def_602)))
(let ((.def_607 (and .def_603 .def_606)))
(let ((.def_608 (and .def_346 .def_607)))
(let ((.def_626 (and .def_608 .def_625)))
(let ((.def_638 (and .def_626 .def_637)))
(let ((.def_372 (* (- 1.0) b.speed_x__AT1)))
(let ((.def_373 (* b.speed_x__AT1 .def_372)))
(let ((.def_374 (* (- 1.0) .def_373)))
(let ((.def_405 (* 2.0 .def_374)))
(let ((.def_423 (* (- 1.0) .def_405)))
(let ((.def_424 (* b.delta__AT1 .def_423)))
(let ((.def_425 (* (- 5.0) .def_424)))
(let ((.def_385 (* b.speed_x__AT1 .def_305)))
(let ((.def_410 (* (- 5.0) .def_385)))
(let ((.def_430 (+ .def_410 .def_425)))
(let ((.def_380 (* b.x__AT1 .def_372)))
(let ((.def_408 (* (- 5.0) .def_380)))
(let ((.def_431 (+ .def_408 .def_430)))
(let ((.def_432 (+ .def_412 .def_431)))
(let ((.def_433 (+ .def_414 .def_432)))
(let ((.def_434 (<= .def_433 0.0 )))
(let ((.def_386 (* (- 1.0) .def_385)))
(let ((.def_381 (* (- 1.0) .def_380)))
(let ((.def_402 (+ .def_381 .def_386)))
(let ((.def_403 (+ b.speed_y__AT1 .def_402)))
(let ((.def_422 (<= .def_403 0.0 )))
(let ((.def_435 (and .def_422 .def_434)))
(let ((.def_406 (* b.delta__AT1 .def_405)))
(let ((.def_407 (* 5.0 .def_406)))
(let ((.def_416 (+ .def_410 .def_407)))
(let ((.def_417 (+ .def_408 .def_416)))
(let ((.def_418 (+ .def_412 .def_417)))
(let ((.def_419 (+ .def_414 .def_418)))
(let ((.def_420 (<= 0.0 .def_419)))
(let ((.def_404 (<= 0.0 .def_403)))
(let ((.def_421 (and .def_404 .def_420)))
(let ((.def_436 (or .def_421 .def_435)))
(let ((.def_387 (* b.delta__AT1 .def_386)))
(let ((.def_388 (* 10.0 .def_387)))
(let ((.def_382 (* b.delta__AT1 .def_381)))
(let ((.def_383 (* 10.0 .def_382)))
(let ((.def_394 (+ .def_383 .def_388)))
(let ((.def_375 (* .def_371 .def_374)))
(let ((.def_376 (* 10.0 .def_375)))
(let ((.def_395 (+ .def_376 .def_394)))
(let ((.def_396 (+ .def_378 .def_395)))
(let ((.def_397 (+ .def_370 .def_396)))
(let ((.def_390 (* (- 10.0) .def_351)))
(let ((.def_398 (+ .def_390 .def_397)))
(let ((.def_399 (+ .def_392 .def_398)))
(let ((.def_400 (<= 0.0 .def_399)))
(let ((.def_352 (<= .def_351 b.y__AT1)))
(let ((.def_401 (and .def_352 .def_400)))
(let ((.def_437 (and .def_401 .def_436)))
(let ((.def_438 (and .def_77 .def_437)))
(let ((.def_45 (not b.counter.0__AT0)))
(let ((.def_361 (or b.counter.1__AT0 .def_45)))
(let ((.def_362 (or b.counter.2__AT0 .def_361)))
(let ((.def_48 (not b.counter.2__AT0)))
(let ((.def_43 (not b.counter.1__AT0)))
(let ((.def_46 (and .def_43 .def_45)))
(let ((.def_360 (or .def_46 .def_48)))
(let ((.def_363 (and .def_360 .def_362)))
(let ((.def_364 (or b.counter.3__AT0 .def_363)))
(let ((.def_357 (or .def_46 b.counter.2__AT0)))
(let ((.def_356 (or .def_43 .def_48)))
(let ((.def_358 (and .def_356 .def_357)))
(let ((.def_51 (not b.counter.3__AT0)))
(let ((.def_359 (or .def_51 .def_358)))
(let ((.def_365 (and .def_359 .def_364)))
(let ((.def_353 (and .def_77 .def_352)))
(let ((.def_349 (or .def_346 .def_348)))
(let ((.def_339 (or .def_251 .def_261)))
(let ((.def_343 (or b.counter.3__AT1 .def_339)))
(let ((.def_340 (or b.counter.2__AT1 .def_339)))
(let ((.def_338 (or .def_256 .def_261)))
(let ((.def_341 (and .def_338 .def_340)))
(let ((.def_342 (or .def_270 .def_341)))
(let ((.def_344 (and .def_342 .def_343)))
(let ((.def_350 (and .def_344 .def_349)))
(let ((.def_354 (and .def_350 .def_353)))
(let ((.def_333 (<= 0.0 b.delta__AT0)))
(let ((.def_64 (not b.EVENT.0__AT0)))
(let ((.def_62 (not b.EVENT.1__AT0)))
(let ((.def_159 (and .def_62 .def_64)))
(let ((.def_161 (not .def_159)))
(let ((.def_334 (or .def_161 .def_333)))
(let ((.def_335 (or b.EVENT.1__AT0 .def_334)))
(let ((.def_204 (= b.bool_atom__AT0 b.bool_atom__AT1)))
(let ((.def_199 (= b.counter.0__AT0 b.counter.0__AT1)))
(let ((.def_196 (= b.counter.1__AT0 b.counter.1__AT1)))
(let ((.def_193 (= b.counter.2__AT0 b.counter.2__AT1)))
(let ((.def_191 (= b.counter.3__AT0 b.counter.3__AT1)))
(let ((.def_194 (and .def_191 .def_193)))
(let ((.def_197 (and .def_194 .def_196)))
(let ((.def_200 (and .def_197 .def_199)))
(let ((.def_329 (and .def_200 .def_204)))
(let ((.def_330 (or .def_161 .def_329)))
(let ((.def_331 (or b.EVENT.1__AT0 .def_330)))
(let ((.def_318 (* (- 10.0) b.y__AT1)))
(let ((.def_85 (* b.delta__AT0 b.delta__AT0)))
(let ((.def_94 (* (- 49.0) .def_85)))
(let ((.def_321 (+ .def_94 .def_318)))
(let ((.def_83 (* b.speed_y__AT0 b.delta__AT0)))
(let ((.def_84 (* 10.0 .def_83)))
(let ((.def_322 (+ .def_84 .def_321)))
(let ((.def_109 (* 10.0 b.y__AT0)))
(let ((.def_323 (+ .def_109 .def_322)))
(let ((.def_324 (= .def_323 0.0 )))
(let ((.def_312 (* (- 5.0) b.speed_y__AT1)))
(let ((.def_131 (* (- 49.0) b.delta__AT0)))
(let ((.def_313 (+ .def_131 .def_312)))
(let ((.def_133 (* 5.0 b.speed_y__AT0)))
(let ((.def_314 (+ .def_133 .def_313)))
(let ((.def_315 (= .def_314 0.0 )))
(let ((.def_304 (* b.speed_x__AT0 b.delta__AT0)))
(let ((.def_308 (+ .def_305 .def_304)))
(let ((.def_309 (+ b.x__AT0 .def_308)))
(let ((.def_310 (= .def_309 0.0 )))
(let ((.def_185 (= b.speed_x__AT0 b.speed_x__AT1)))
(let ((.def_311 (and .def_185 .def_310)))
(let ((.def_316 (and .def_311 .def_315)))
(let ((.def_325 (and .def_316 .def_324)))
(let ((.def_326 (or .def_161 .def_325)))
(let ((.def_182 (= b.y__AT0 b.y__AT1)))
(let ((.def_179 (= b.x__AT0 b.x__AT1)))
(let ((.def_298 (and .def_179 .def_182)))
(let ((.def_299 (and .def_185 .def_298)))
(let ((.def_188 (= b.speed_y__AT0 b.speed_y__AT1)))
(let ((.def_300 (and .def_188 .def_299)))
(let ((.def_295 (= b.delta__AT0 0.0 )))
(let ((.def_296 (and .def_159 .def_295)))
(let ((.def_297 (not .def_296)))
(let ((.def_301 (or .def_297 .def_300)))
(let ((.def_302 (or b.EVENT.1__AT0 .def_301)))
(let ((.def_287 (and .def_185 .def_188)))
(let ((.def_288 (and .def_200 .def_287)))
(let ((.def_289 (or b.bool_atom__AT0 .def_288)))
(let ((.def_262 (or b.counter.0__AT0 .def_261)))
(let ((.def_260 (or .def_45 b.counter.0__AT1)))
(let ((.def_263 (and .def_260 .def_262)))
(let ((.def_264 (and .def_251 .def_263)))
(let ((.def_265 (or b.counter.1__AT0 .def_264)))
(let ((.def_259 (or .def_43 b.counter.1__AT1)))
(let ((.def_266 (and .def_259 .def_265)))
(let ((.def_278 (and .def_256 .def_266)))
(let ((.def_279 (or b.counter.2__AT0 .def_278)))
(let ((.def_273 (and .def_45 .def_251)))
(let ((.def_274 (or b.counter.1__AT0 .def_273)))
(let ((.def_275 (and .def_259 .def_274)))
(let ((.def_276 (and b.counter.2__AT1 .def_275)))
(let ((.def_277 (or .def_48 .def_276)))
(let ((.def_280 (and .def_277 .def_279)))
(let ((.def_281 (and b.counter.3__AT1 .def_280)))
(let ((.def_282 (or b.counter.3__AT0 .def_281)))
(let ((.def_267 (and b.counter.2__AT1 .def_266)))
(let ((.def_268 (or b.counter.2__AT0 .def_267)))
(let ((.def_254 (or b.counter.1__AT0 b.counter.1__AT1)))
(let ((.def_252 (and b.counter.0__AT1 .def_251)))
(let ((.def_253 (or .def_43 .def_252)))
(let ((.def_255 (and .def_253 .def_254)))
(let ((.def_257 (and .def_255 .def_256)))
(let ((.def_258 (or .def_48 .def_257)))
(let ((.def_269 (and .def_258 .def_268)))
(let ((.def_271 (and .def_269 .def_270)))
(let ((.def_272 (or .def_51 .def_271)))
(let ((.def_283 (and .def_272 .def_282)))
(let ((.def_242 (* b.speed_y__AT0 b.speed_y__AT0)))
(let ((.def_241 (* b.speed_x__AT0 b.speed_x__AT0)))
(let ((.def_243 (+ .def_241 .def_242)))
(let ((.def_244 (* .def_240 .def_243)))
(let ((.def_246 (* (- 1.0) .def_244)))
(let ((.def_247 (+ .def_237 .def_246)))
(let ((.def_248 (+ .def_235 .def_247)))
(let ((.def_249 (= .def_248 0.0 )))
(let ((.def_228 (* b.speed_y__AT0 .def_224)))
(let ((.def_211 (* (- 2.0) b.x__AT0)))
(let ((.def_212 (* (- 1.0) .def_211)))
(let ((.def_225 (* .def_212 .def_224)))
(let ((.def_226 (* b.speed_x__AT0 .def_225)))
(let ((.def_231 (+ .def_226 .def_228)))
(let ((.def_232 (+ .def_222 .def_231)))
(let ((.def_233 (+ b.speed_y__AT1 .def_232)))
(let ((.def_234 (= .def_233 0.0 )))
(let ((.def_250 (and .def_234 .def_249)))
(let ((.def_284 (and .def_250 .def_283)))
(let ((.def_219 (not b.bool_atom__AT0)))
(let ((.def_285 (or .def_219 .def_284)))
(let ((.def_213 (* b.speed_x__AT0 .def_212)))
(let ((.def_214 (+ b.speed_y__AT0 .def_213)))
(let ((.def_215 (<= 0.0 .def_214)))
(let ((.def_216 (not .def_215)))
(let ((.def_68 (* (- 1.0) b.x__AT0)))
(let ((.def_69 (* b.x__AT0 .def_68)))
(let ((.def_209 (= b.y__AT0 .def_69)))
(let ((.def_217 (and .def_209 .def_216)))
(let ((.def_218 (= b.bool_atom__AT0 .def_217)))
(let ((.def_286 (and .def_218 .def_285)))
(let ((.def_290 (and .def_286 .def_289)))
(let ((.def_291 (and .def_179 .def_290)))
(let ((.def_292 (and .def_182 .def_291)))
(let ((.def_293 (or .def_159 .def_292)))
(let ((.def_294 (or b.EVENT.1__AT0 .def_293)))
(let ((.def_303 (and .def_294 .def_302)))
(let ((.def_327 (and .def_303 .def_326)))
(let ((.def_166 (= b.time__AT0 b.time__AT1)))
(let ((.def_180 (and .def_166 .def_179)))
(let ((.def_183 (and .def_180 .def_182)))
(let ((.def_186 (and .def_183 .def_185)))
(let ((.def_189 (and .def_186 .def_188)))
(let ((.def_201 (and .def_189 .def_200)))
(let ((.def_205 (and .def_201 .def_204)))
(let ((.def_206 (or .def_62 .def_205)))
(let ((.def_169 (* (- 1.0) b.time__AT1)))
(let ((.def_172 (+ b.delta__AT0 .def_169)))
(let ((.def_173 (+ b.time__AT0 .def_172)))
(let ((.def_174 (= .def_173 0.0 )))
(let ((.def_175 (or .def_161 .def_174)))
(let ((.def_176 (or b.EVENT.1__AT0 .def_175)))
(let ((.def_167 (or .def_159 .def_166)))
(let ((.def_168 (or b.EVENT.1__AT0 .def_167)))
(let ((.def_177 (and .def_168 .def_176)))
(let ((.def_207 (and .def_177 .def_206)))
(let ((.def_163 (= .def_161 b.event_is_timed__AT1)))
(let ((.def_160 (= b.event_is_timed__AT0 .def_159)))
(let ((.def_164 (and .def_160 .def_163)))
(let ((.def_208 (and .def_164 .def_207)))
(let ((.def_328 (and .def_208 .def_327)))
(let ((.def_332 (and .def_328 .def_331)))
(let ((.def_336 (and .def_332 .def_335)))
(let ((.def_337 (and .def_62 .def_336)))
(let ((.def_355 (and .def_337 .def_354)))
(let ((.def_366 (and .def_355 .def_365)))
(let ((.def_86 (* (- 1.0) b.speed_x__AT0)))
(let ((.def_87 (* b.speed_x__AT0 .def_86)))
(let ((.def_88 (* (- 1.0) .def_87)))
(let ((.def_122 (* 2.0 .def_88)))
(let ((.def_142 (* (- 1.0) .def_122)))
(let ((.def_143 (* b.delta__AT0 .def_142)))
(let ((.def_144 (* (- 5.0) .def_143)))
(let ((.def_101 (* b.speed_x__AT0 .def_68)))
(let ((.def_129 (* (- 5.0) .def_101)))
(let ((.def_149 (+ .def_129 .def_144)))
(let ((.def_96 (* b.x__AT0 .def_86)))
(let ((.def_127 (* (- 5.0) .def_96)))
(let ((.def_150 (+ .def_127 .def_149)))
(let ((.def_151 (+ .def_131 .def_150)))
(let ((.def_152 (+ .def_133 .def_151)))
(let ((.def_153 (<= .def_152 0.0 )))
(let ((.def_102 (* (- 1.0) .def_101)))
(let ((.def_97 (* (- 1.0) .def_96)))
(let ((.def_119 (+ .def_97 .def_102)))
(let ((.def_120 (+ b.speed_y__AT0 .def_119)))
(let ((.def_141 (<= .def_120 0.0 )))
(let ((.def_154 (and .def_141 .def_153)))
(let ((.def_123 (* b.delta__AT0 .def_122)))
(let ((.def_125 (* 5.0 .def_123)))
(let ((.def_135 (+ .def_129 .def_125)))
(let ((.def_136 (+ .def_127 .def_135)))
(let ((.def_137 (+ .def_131 .def_136)))
(let ((.def_138 (+ .def_133 .def_137)))
(let ((.def_139 (<= 0.0 .def_138)))
(let ((.def_121 (<= 0.0 .def_120)))
(let ((.def_140 (and .def_121 .def_139)))
(let ((.def_155 (or .def_140 .def_154)))
(let ((.def_103 (* b.delta__AT0 .def_102)))
(let ((.def_104 (* 10.0 .def_103)))
(let ((.def_98 (* b.delta__AT0 .def_97)))
(let ((.def_99 (* 10.0 .def_98)))
(let ((.def_111 (+ .def_99 .def_104)))
(let ((.def_89 (* .def_85 .def_88)))
(let ((.def_90 (* 10.0 .def_89)))
(let ((.def_112 (+ .def_90 .def_111)))
(let ((.def_113 (+ .def_94 .def_112)))
(let ((.def_114 (+ .def_84 .def_113)))
(let ((.def_107 (* (- 10.0) .def_69)))
(let ((.def_115 (+ .def_107 .def_114)))
(let ((.def_116 (+ .def_109 .def_115)))
(let ((.def_117 (<= 0.0 .def_116)))
(let ((.def_70 (<= .def_69 b.y__AT0)))
(let ((.def_118 (and .def_70 .def_117)))
(let ((.def_156 (and .def_118 .def_155)))
(let ((.def_157 (and .def_77 .def_156)))
(let ((.def_78 (and .def_70 .def_77)))
(let ((.def_65 (or .def_62 .def_64)))
(let ((.def_55 (or .def_43 .def_45)))
(let ((.def_59 (or b.counter.3__AT0 .def_55)))
(let ((.def_56 (or b.counter.2__AT0 .def_55)))
(let ((.def_54 (or .def_45 .def_48)))
(let ((.def_57 (and .def_54 .def_56)))
(let ((.def_58 (or .def_51 .def_57)))
(let ((.def_60 (and .def_58 .def_59)))
(let ((.def_66 (and .def_60 .def_65)))
(let ((.def_79 (and .def_66 .def_78)))
(let ((.def_49 (and .def_46 .def_48)))
(let ((.def_52 (and .def_49 .def_51)))
(let ((.def_40 (= b.speed_y__AT0 1.0 )))
(let ((.def_37 (= b.speed_x__AT0 1.0 )))
(let ((.def_33 (= b.y__AT0 10.0 )))
(let ((.def_29 (= b.x__AT0 0.0 )))
(let ((.def_25 (= b.time__AT0 0.0 )))
(let ((.def_27 (and .def_25 b.event_is_timed__AT0)))
(let ((.def_30 (and .def_27 .def_29)))
(let ((.def_34 (and .def_30 .def_33)))
(let ((.def_38 (and .def_34 .def_37)))
(let ((.def_41 (and .def_38 .def_40)))
(let ((.def_53 (and .def_41 .def_52)))
(let ((.def_80 (and .def_53 .def_79)))
(let ((.def_17 (or b.counter.1__AT3 .def_9)))
(let ((.def_18 (or b.counter.2__AT3 .def_17)))
(let ((.def_10 (and .def_6 .def_9)))
(let ((.def_16 (or .def_4 .def_10)))
(let ((.def_19 (and .def_16 .def_18)))
(let ((.def_20 (or b.counter.3__AT3 .def_19)))
(let ((.def_11 (or b.counter.2__AT3 .def_10)))
(let ((.def_7 (or .def_4 .def_6)))
(let ((.def_12 (and .def_7 .def_11)))
(let ((.def_15 (or .def_12 .def_14)))
(let ((.def_21 (and .def_15 .def_20)))
(let ((.def_22 (not .def_21)))
(let ((.def_81 (and .def_22 .def_80)))
(let ((.def_158 (and .def_81 .def_157)))
(let ((.def_367 (and .def_158 .def_366)))
(let ((.def_439 (and .def_367 .def_438)))
(let ((.def_639 (and .def_439 .def_638)))
(let ((.def_711 (and .def_639 .def_710)))
(let ((.def_903 (and .def_711 .def_902)))
(let ((.def_975 (and .def_903 .def_974)))
.def_975))))))))))))))))))))))))))))))))))))))))))))))))))))))))))))))))))))))))))))))))))))))))))))))))))))))))))))))))))))))))))))))))))))))))))))))))))))))))))))))))))))))))))))))))))))))))))))))))))))))))))))))))))))))))))))))))))))))))))))))))))))))))))))))))))))))))))))))))))))))))))))))))))))))))))))))))))))))))))))))))))))))))))))))))))))))))))))))))))))))))))))))))))))))))))))))))))))))))))))))))))))))))))))))))))))))))))))))))))))))))))))))))))))))))))))))))))))))))))))))))))))))))))))))))))))))))))))))))))))))))))))))))))))))))))))))))))))))))))))))))))))))))))))))))))))))))))))))))))))))))))))))))))))))))))))))))))))))))))))))))))))))))))))))))))))))))))))))))))))))))))))))))))))))))))))))))))))))))))))))))))))))))))))))))))))))))))))))))))))))))))))))))))))))))))))))))))))))))))))))))))))))
(check-sat)
(exit)
